SCIP Status        : solving was interrupted [time limit reached]
Total Time         :    3600.00
  solving          :    3600.00
  presolving       :       0.44 (included in solving)
  reading          :       0.00
  copying          :       0.99 (64 #copies) (minimal 0.00, maximal 0.03, average 0.02)
Original Problem   :
  Problem name     : bbbenchmark/g05_100.6.cut
  Variables        : 101 (100 binary, 0 integer, 0 implicit integer, 1 continuous)
  Constraints      : 1 initial, 1 maximal
  Objective        : minimize, 1 non-zeros (abs.min = 1, abs.max = 1)
Presolved Problem  :
  Problem name     : t_bbbenchmark/g05_100.6.cut
  Variables        : 1869 (100 binary, 0 integer, 1754 implicit integer, 15 continuous)
  Constraints      : 1797 initial, 4695 maximal
  Objective        : minimize, 1 non-zeros (abs.min = 1, abs.max = 1)
  Nonzeros         : 8643 constraint, 202 clique table
Presolvers         :   ExecTime  SetupTime  Calls  FixedVars   AggrVars   ChgTypes  ChgBounds   AddHoles    DelCons    AddCons   ChgSides   ChgCoefs
  boundshift       :       0.00       0.00      0          0          0          0          0          0          0          0          0          0
  convertinttobin  :       0.00       0.00      0          0          0          0          0          0          0          0          0          0
  domcol           :       0.00       0.00      1          0          0          0          0          0          0          0          0          0
  dualagg          :       0.00       0.00      0          0          0          0          0          0          0          0          0          0
  dualcomp         :       0.00       0.00      1          0          0          0          0          0          0          0          0          0
  dualinfer        :       0.00       0.00      0          0          0          0          0          0          0          0          0          0
  dualsparsify     :       0.00       0.00      1          0          0          0          0          0          0          0          0          0
  gateextraction   :       0.00       0.00      0          0          0          0          0          0          0          0          0          0
  implics          :       0.00       0.00      2          0          0          0          0          0          0          0          0          0
  inttobinary      :       0.00       0.00      0          0          0          0          0          0          0          0          0          0
  qpkktref         :       0.00       0.00      0          0          0          0          0          0          0          0          0          0
  redvub           :       0.00       0.00      0          0          0          0          0          0          0          0          0          0
  sparsify         :       0.00       0.00      1          0          0          0          0          0          0          0          0          0
  stuffing         :       0.00       0.00      0          0          0          0          0          0          0          0          0          0
  trivial          :       0.00       0.00      4          0          0          0          0          0          0          0          0          0
  tworowbnd        :       0.00       0.00      0          0          0          0          0          0          0          0          0          0
  dualfix          :       0.00       0.00      4          0          0          0          0          0          0          0          0          0
  genvbounds       :       0.00       0.00      0          0          0          0          0          0          0          0          0          0
  probing          :       0.32       0.00      1          0          0          0          0          0          0          0          0          0
  pseudoobj        :       0.00       0.00      1          0          0          0          1          0          0          0          0          0
  symmetry         :       0.00       0.00      0          0          0          0          0          0          0          0          0          0
  vbounds          :       0.00       0.00      1          0          0          0          0          0          0          0          0          0
  varbound         :       0.00       0.00      2          0          0          0          0          0          0          0          0          0
  and              :       0.01       0.00      2          0          0          0          0          0          0          0          0          0
  linear           :       0.00       0.00      2          0          0          0          0          0          0          0          0          0
  logicor          :       0.00       0.00      0          0          0          0          0          0          0          0          0          0
  bounddisjunction :       0.00       0.00      0          0          0          0          0          0          0          0          0          0
  nonlinear        :       0.10       0.01      5          0          0          0          1          0          0       1796          0          0
  benders          :       0.00       0.00      0          0          0          0          0          0          0          0          0          0
  components       :       0.01       0.00      1          0          0          0          0          0          0          0          0          0
  root node        :          -          -      -          0          -          -         15          -          -          -          -          -
Constraints        :     Number  MaxNumber  #Separate #Propagate    #EnfoLP    #EnfoRelax  #EnfoPS    #Check   #ResProp    Cutoffs    DomReds       Cuts    Applied      Conss   Children
  benderslp        :          0          0          0          0      86277          0          0       3486          0          0          0          0          0          0          0
  integral         :          0          0          0          0      86277          0          0       3486          0          0        867          0          0        657     171408
  varbound         :         14         14        235     653174          0          0          0        829          0          0      61971          0          0          0          0
  and              :       1754       1754      96951     688635          0          0          0        829     370915          0     341283        428        419          0          0
  linear           :         29+       114        235     688712          0          0          0        827       4651         26     306451          0          0          0          0
  logicor          :          0+      1887          0     116368          0          0          0          0         57        283         29          0          0          0          0
  bounddisjunction :          0+      1256          0      98680          0          0          0          0          6         71          2          0          0          0          0
  benders          :          0          0          0          0          0          0          0         27          0          0          0          0          0          0          0
  countsols        :          0          0          0          0          0          0          0         27          0          0          0          0          0          0          0
  components       :          0          0          0          0          0          0          0          0          0          0          0          0          0          0          0
Constraint Timings :  TotalTime  SetupTime   Separate  Propagate     EnfoLP     EnfoPS     EnfoRelax   Check    ResProp    SB-Prop
  benderslp        :       0.11       0.00       0.00       0.00       0.11       0.00       0.00       0.00       0.00       0.00
  integral         :      52.10       0.00       0.00       0.00      52.01       0.00       0.00       0.09       0.00       0.00
  varbound         :       0.97       0.00       0.00       0.97       0.00       0.00       0.00       0.00       0.00       0.00
  and              :      79.14       0.00      53.92      24.70       0.00       0.00       0.00       0.22       0.17       0.13
  linear           :       4.79       0.00       0.11       4.64       0.00       0.00       0.00       0.00       0.01       0.03
  logicor          :       3.49       0.00       0.00       3.49       0.00       0.00       0.00       0.00       0.00       0.00
  bounddisjunction :       1.91       0.00       0.00       1.91       0.00       0.00       0.00       0.00       0.00       0.00
  benders          :       0.00       0.00       0.00       0.00       0.00       0.00       0.00       0.00       0.00       0.00
  countsols        :       0.00       0.00       0.00       0.00       0.00       0.00       0.00       0.00       0.00       0.00
  components       :       0.15       0.00       0.00       0.15       0.00       0.00       0.00       0.00       0.00       0.00
Propagators        : #Propagate   #ResProp    Cutoffs    DomReds
  dualfix          :          4          0          0          0
  genvbounds       :          0          0          0          0
  nlobbt           :          0          0          0          0
  obbt             :          0          0          0          0
  probing          :          0          0          0          0
  pseudoobj        :     380460         10          0        983
  redcost          :     190211          0          0      74115
  rootredcost      :          8          0          0          0
  symmetry         :          0          0          0          0
  vbounds          :     122652          0          0          0
Propagator Timings :  TotalTime  SetupTime   Presolve  Propagate    ResProp    SB-Prop
  dualfix          :       0.00       0.00       0.00       0.00       0.00       0.00
  genvbounds       :       0.35       0.00       0.00       0.35       0.00       0.00
  nlobbt           :       0.00       0.00       0.00       0.00       0.00       0.00
  obbt             :       0.00       0.00       0.00       0.00       0.00       0.00
  probing          :       0.32       0.00       0.32       0.00       0.00       0.00
  pseudoobj        :       0.66       0.00       0.00       0.66       0.00       0.00
  redcost          :      11.76       0.00       0.00      11.76       0.00       0.00
  rootredcost      :       0.50       0.00       0.00       0.50       0.00       0.00
  symmetry         :       0.30       0.00       0.00       0.30       0.00       0.00
  vbounds          :       0.51       0.00       0.00       0.51       0.00       0.00
Conflict Analysis  :       Time      Calls    Success    DomReds  Conflicts   Literals    Reconvs ReconvLits   Dualrays   Nonzeros   LP Iters   (pool size: [10000,10000])
  propagation      :       0.02        355        271          -        366       68.8          0        0.0          -          -          -
  infeasible LP    :       0.41        269        269          -      10309      133.2          0        0.0        353      184.1          0
  bound exceed. LP :      18.83       4819       4493          -     100821      111.5          0        0.0          0        0.0      53321
  strong branching :       0.00          0          0          -          0        0.0          0        0.0          -          -          0
  pseudo solution  :       0.00          0          0          -          0        0.0          0        0.0          -          -          -
  applied globally :       0.40          -          -          0      25823      118.4          -          -        353          -          -
  applied locally  :          -          -          -          0          0        0.0          -          -          0          -          -
Separators         :   ExecTime  SetupTime      Calls  RootCalls    Cutoffs    DomReds  FoundCuts ViaPoolAdd  DirectAdd    Applied ViaPoolApp  DirectApp      Conss
  cut pool         :       2.36          -      21211        266          -          -      35006     222721          -          -          -          -          -    (maximal pool size:       1882)
  aggregation      :     518.06       0.00       4002        235          0          0         15          8          0          6          6          0          0
  > cmir           :          -          -          -          -          -          -          -          8          0          6          6          0          -
  > flowcover      :          -          -          -          -          -          -          -          0          0          0          0          0          -
  > knapsackcover  :          -          -          -          -          -          -          -          0          0          0          0          0          -
  cgmip            :       0.00       0.00          0          0          0          0          0          0          0          0          0          0          0
  clique           :       0.01       0.00        235        235          0          0          0          0          0          0          0          0          0
  closecuts        :       0.00       0.00          0          0          0          0          0          0          0          0          0          0          0
  convexproj       :       0.00       0.00          0          0          0          0          0          0          0          0          0          0          0
  disjunctive      :       0.00       0.00          0          0          0          0          0          0          0          0          0          0          0
  eccuts           :       0.00       0.00          0          0          0          0          0          0          0          0          0          0          0
  gauge            :       0.00       0.00          0          0          0          0          0          0          0          0          0          0          0
  gomory           :       0.00       0.00          0          0          0          0          0          0          0          0          0          0          0
  > gomorymi       :          -          -          -          -          -          -          -          0          0          0          0          0          -
  > strongcg       :          -          -          -          -          -          -          -          0          0          0          0          0          -
  impliedbounds    :       0.30       0.00       4002        235          0          0          0          0          0          0          0          0          0
  interlattice     :       1.21       0.00        160        160          0          0        160          0        160        153          0        153          0
  interminor       :       0.00       0.00          0          0          0          0          0          0          0          0          0          0          0
  intersub         :       2.37       0.00         40         40          0          0         40          0         40         40          0         40          0
  intobj           :       0.00       0.00          0          0          0          0          0          0          0          0          0          0          0
  mcf              :       0.00       0.00          1          1          0          0          0          0          0          0          0          0          0
  minor            :       0.00       0.00          0          0          0          0          0          0          0          0          0          0          0
  mixing           :       0.01       0.00       4002        235          0          0          0          0          0          0          0          0          0
  oddcycle         :       0.00       0.00          0          0          0          0          0          0          0          0          0          0          0
  rapidlearning    :       0.00       0.00          0          0          0          0          0          0          0          0          0          0          0
  rlt              :       0.00       0.00         10         10          0          0          0          0          0          0          0          0          0
  zerohalf         :      34.95       0.00       3576         20          0          0      34991     222713          0      86466      86466          0          0
Cutselectors       :   ExecTime  SetupTime      Calls  RootCalls   Selected     Forced   Filtered  RootSelec   RootForc   RootFilt 
  hybrid           :       0.24       0.00       9665        236      87084          0     136265        403          0         20
Pricers            :   ExecTime  SetupTime      Calls       Vars
  problem variables:       0.00          -          0          0
Branching Rules    :   ExecTime  SetupTime   BranchLP  BranchExt   BranchPS    Cutoffs    DomReds       Cuts      Conss   Children
  allfullstrong    :       0.00       0.00          0          0          0          0          0          0          0          0
  cloud            :       0.00       0.00          0          0          0          0          0          0          0          0
  distribution     :       0.00       0.00          0          0          0          0          0          0          0          0
  fullstrong       :       0.00       0.00          0          0          0          0          0          0          0          0
  inference        :       0.00       0.00          0          0          0          0          0          0          0          0
  leastinf         :       0.00       0.00          0          0          0          0          0          0          0          0
  lookahead        :       0.00       0.00          0          0          0          0          0          0          0          0
  mostinf          :       0.00       0.00          0          0          0          0          0          0          0          0
  multaggr         :       0.00       0.00          0          0          0          0          0          0          0          0
  nodereopt        :       0.00       0.00          0          0          0          0          0          0          0          0
  pscost           :       0.00       0.00          0          0          0          0          0          0          0          0
  random           :       0.00       0.00          0          0          0          0          0          0          0          0
  relpscost        :      51.80       0.00      86277          0          0          0        867          0        657     171408
  vanillafullstrong:       0.00       0.00          0          0          0          0          0          0          0          0
Primal Heuristics  :   ExecTime  SetupTime      Calls      Found       Best
  LP solutions     :       0.00          -          -          0          0
  relax solutions  :       0.00          -          -          0          0
  pseudo solutions :       0.00          -          -          0          0
  strong branching :       0.01          -          -          0          0
  actconsdiving    :       0.00       0.00          0          0          0
  adaptivediving   :       4.40       0.00         29          0          0
  alns             :       2.82       0.00         26          6          6
  bound            :       0.00       0.00          0          0          0
  clique           :       0.02       0.00          1          0          0
  coefdiving       :       0.00       0.00          0          0          0
  completesol      :       0.00       0.00          0          0          0
  conflictdiving   :     134.96       0.00        911          0          0
  crossover        :       1.65       0.00          5          0          0
  dins             :       0.00       0.00          0          0          0
  distributiondivin:      72.59       0.00        308          0          0
  dps              :       0.00       0.00          0          0          0
  dualval          :       0.00       0.00          0          0          0
  farkasdiving     :       0.01       0.00          0          0          0
  feaspump         :       0.89       0.00          1          1          1
  fixandinfer      :       0.00       0.00          0          0          0
  fracdiving       :      54.54       0.00        411          0          0
  gins             :       0.20       0.00          0          0          0
  guideddiving     :      58.19       0.00        413          2          2
  indicator        :       0.10       0.00          0          0          0
  indicatordiving  :       0.00       0.00          0          0          0
  intdiving        :       0.00       0.00          0          0          0
  intshifting      :       0.39       0.00         43          0          0
  linesearchdiving :      55.37       0.00        398          0          0
  localbranching   :       0.00       0.00          0          0          0
  locks            :       0.00       0.00          1          0          0
  lpface           :       0.09       0.00          0          0          0
  mpec             :     108.74       0.00         11          0          0
  multistart       :       0.00       0.00          0          0          0
  mutation         :       0.00       0.00          0          0          0
  nlpdiving        :       9.12       0.00         10          0          0
  objpscostdiving  :      48.56       0.00         46          7          0
  octane           :       0.00       0.00          0          0          0
  ofins            :       0.09       0.00          0          0          0
  oneopt           :       0.16       0.00         12          0          0
  padm             :       0.00       0.00          0          0          0
  proximity        :       0.00       0.00          0          0          0
  pscostdiving     :      59.05       0.00        331          1          1
  randrounding     :       1.70       0.00       3455          0          0
  rens             :       0.00       0.00          0          0          0
  reoptsols        :       0.00       0.00          0          0          0
  repair           :       0.00       0.00          0          0          0
  rins             :       5.36       0.00         33          2          2
  rootsoldiving    :      28.03       0.00         42          0          0
  rounding         :       1.38       0.00       4257          0          0
  shiftandpropagate:       0.00       0.00          0          0          0
  shifting         :      33.79       0.00       7643          2          2
  simplerounding   :       0.13       0.00          0          0          0
  subnlp           :     140.72       0.00          0          0          0
  trivial          :       0.00       0.00          2          2          2
  trivialnegation  :       0.00       0.00          0          0          0
  trustregion      :       0.00       0.00          0          0          0
  trysol           :       0.14       0.00          0          0          0
  twoopt           :       0.00       0.00          0          0          0
  undercover       :       2.06       0.00          1          1          1
  vbounds          :       0.00       0.00          0          0          0
  veclendiving     :      49.54       0.00        413          0          0
  zeroobj          :       0.00       0.00          0          0          0
  zirounding       :       0.73       0.00       1000          0          0
  other solutions  :          -          -          -          0          -
Diving (single)    :      Calls      Nodes   LP Iters Backtracks  Conflicts   MinDepth   MaxDepth   AvgDepth  RoundSols  NLeafSols  MinSolDpt  MaxSolDpt  AvgSolDpt
  actconsdiving    :          0          -          -          -          -          -          -          -          -          -          -          -          -
  coefdiving       :          0          -          -          -          -          -          -          -          -          -          -          -          -
  conflictdiving   :        911      44520    1233315        860      53504         56         90       69.1          0          -          -          -          -
  distributiondivin:        308      13281     506729        343       6200         52         81       61.7          0          -          -          -          -
  farkasdiving     :          0          -          -          -          -          -          -          -          -          -          -          -          -
  fracdiving       :        411      50012     457616         81       1157         62        296      141.5          0          -          -          -          -
  guideddiving     :        413      44623     500539         85       2720         65        280      128.2          0          2         91        103       97.0
  indicatordiving  :          0          -          -          -          -          -          -          -          -          -          -          -          -
  linesearchdiving :        398      19633     502319        156      17473         49         91       69.2          0          -          -          -          -
  pscostdiving     :        331      14773     519839        351       5659         58         80       63.5          0          1         80         80       80.0
  veclendiving     :        413      20552     458645        125      21831         55         89       70.2          0          -          -          -          -
Diving (adaptive)  :      Calls      Nodes   LP Iters Backtracks  Conflicts   MinDepth   MaxDepth   AvgDepth  RoundSols  NLeafSols  MinSolDpt  MaxSolDpt  AvgSolDpt
  actconsdiving    :          2         88       2746          2         35         58         60       59.0          0          -          -          -          -
  coefdiving       :         11        564      12550          6        606         56         79       68.7          0          -          -          -          -
  conflictdiving   :          0          -          -          -          -          -          -          -          -          -          -          -          -
  distributiondivin:          0          -          -          -          -          -          -          -          -          -          -          -          -
  farkasdiving     :          0          -          -          -          -          -          -          -          -          -          -          -          -
  fracdiving       :          1        118       1644          1          4        136        136      136.0          0          -          -          -          -
  guideddiving     :          1        104        990          0          0        122        122      122.0          0          -          -          -          -
  indicatordiving  :          0          -          -          -          -          -          -          -          -          -          -          -          -
  linesearchdiving :          3        176       4457          2        147         69         88       76.7          0          -          -          -          -
  pscostdiving     :          0          -          -          -          -          -          -          -          -          -          -          -          -
  veclendiving     :         11        574      12212          0        486         63         81       70.1          0          -          -          -          -
Neighborhoods      :      Calls  SetupTime  SolveTime SolveNodes       Sols       Best       Exp3  EpsGreedy        UCB TgtFixRate  Opt  Inf Node Stal  Sol  Usr Othr Actv
  rens             :          3       0.08       0.09         60          0          0    0.00000   -1.00000    0.48898      0.737    0    2    0    1    0    0    0    1
  rins             :          2       0.06       0.27        163          0          0    0.00000   -1.00000    0.36340      0.850    0    1    0    1    0    0    0    1
  mutation         :          3       0.06       0.31        139          0          0    0.00000   -1.00000    0.42027      0.662    0    2    0    1    0    0    0    1
  localbranching   :          8       0.20       0.68        617          6          6    0.00000   -1.00000    0.47073      0.849    0    1    0    5    2    0    0    1
  crossover        :          4       0.11       0.26        116          0          0    0.00000   -1.00000    0.42868      0.522    0    3    0    1    0    0    0    1
  proximity        :          2       0.05       0.43        208          0          0    0.00000   -1.00000    0.32453      0.850    0    1    0    1    0    0    0    1
  zeroobjective    :          2       0.04       0.06         69          0          0    0.00000   -1.00000    0.46441      0.850    0    1    0    1    0    0    0    1
  dins             :          2       0.02       0.01          1          0          0    0.00000   -1.00000    0.30085      0.700    0    1    0    0    0    0    1    1
  trustregion      :          0       0.00       0.00          0          0          0    0.00000   -1.00000    1.00000      0.900    0    0    0    0    0    0    0    0
Expressions        :   #IntEval  IntEvalTi   #RevProp  RevPropTi    DomReds    Cutoffs  #Estimate  EstimTime  Branching  #Simplify SimplifyTi Simplified
  pow              :          0       0.00          0       0.00          0          0          0       0.00          0          0       0.00          0
  prod             :       9900       0.02          0       0.00          0          0          0       0.00          0       6704       0.00          0
  sum              :          8       0.01          2       0.00          0          0          0       0.00          0          3       0.01          2
  var              :       6416       0.00          0       0.00          0          0          0       0.00          0      15479       0.00          0
  varidx           :          0       0.00          0       0.00          0          0          0       0.00          0          0       0.00          0
LP                 :       Time      Calls Iterations  Iter/call   Iter/sec  Time-0-It Calls-0-It    ItLimit
  primal LP        :     144.29      14754          0       0.00       0.00     144.24      14754
  dual LP          :    1713.13     155602    9777619      66.24    5707.46       4.10       7996
  lex dual LP      :       0.00          0          0       0.00          -
  barrier LP       :       0.00          0          0       0.00          -       0.00          0
  resolve instable :       0.00          0          0       0.00          -
  diving/probing LP:     486.22      15455    4605762     298.01    9472.59
  strong branching :      21.32       1255     126325     100.66    5925.19          -          -         36
    (at root node) :          -         20      10509     525.45          -
  conflict analysis:       8.43       5553      53321       9.60    6325.15
NLP relaxation     :
  solve time       :       9.10 (10 calls)
  convexity        :  nonconvex (43 linear rows, 0 convex ineq., 0 nonconvex ineq., 1754 nonlinear eq. or two-sided ineq.)
NLP Solvers        :  #Problems  ProblemTi    #Solves  SolveTime      #Iter  Time/Iter      #Okay #TimeLimit #IterLimit #LObjLimit #Interrupt  #NumError #EvalError  #OutOfMem #LicenseEr #OtherTerm   #GlobOpt    #LocOpt  #Feasible #LocInfeas #GlobInfea #Unbounded   #Unknown
  ipopt            :         12       6.39         30     121.35       1572       0.08         30          0          0          0          0          0          0          0          0          0          0          8          0         12          0          0         10
B&B Tree           :
  number of runs   :          1
  nodes            :     137357 (85704 internal, 51653 leaves)
  feasible leaves  :          0
  infeas. leaves   :         13
  objective leaves :      51639
  nodes (total)    :     137357 (85704 internal, 51653 leaves)
  nodes left       :      33944
  max depth        :         64
  max depth (total):         64
  backtracks       :      31813 (23.2%)
  early backtracks :          0 (0.0%)
  nodes exc. ref.  :          0 (0.0%)
  delayed cutoffs  :          0
  repropagations   :       5200 (623 domain reductions, 0 cutoffs)
  avg switch length:       7.20
  switching time   :     181.67
Estim. Tree Size   :     274930
Estimation Tree    : 171409 nodes (137465 visited, 85704 internal, 51761 leaves, 33944 open), weight: 0.0000 completed 0.0844
Estimations        :      estim      value      trend resolution     smooth
  wbe              : 8702563912605515          -          -          -          -
  tree-profile     :         -1          -          -          -          -
  gap              :    3134356    0.68199    0.00001         64    3206075
  tree-weight      :     274930    0.00000    0.00000         64     274574
  leaf-frequency   :    1819754    0.37654    0.00001         64    1950892
  ssg              :    5453412    0.86675   -0.00002         64    5689553
  open-nodes       :     274930 33944.00000   15.80969         64     274574
Root Node          :
  First LP value   : -1.00000000000000e+00
  First LP Iters   :       1597 (10646.67 Iter/sec)
  First LP Time    :       0.15
  Final Dual Bound : -9.35463099353063e-01
  Final Root Iters :      10481
  Root LP Estimate : -3.40533619195500e-01
Solution           :
  Solutions found  :         24 (17 improvements)
  First Solution   : +1.00000000000000e+05   (in run 1, after 0 nodes, 0.01 seconds, depth 0, found by <trivial>)
  Gap First Sol.   :   infinite
  Gap Last Sol.    :      54.01 %
  Primal Bound     : -5.68080808080806e-01   (in run 1, after 8810 nodes, 423.38 seconds, depth 60, found by <alns>)
  Dual Bound       : -8.32979797979797e-01
  Gap              :      46.63 %
Integrals          :      Total       Avg%
  primal-dual      :  121468.43      33.74
  primal-ref       :          -          - (not evaluated)
  dual-ref         :          -          - (not evaluated)
